; 
(set-info :status unknown)
(declare-fun _0 ((_ BitVec 16) (_ BitVec 32)) Bool)
(declare-fun time () (_ BitVec 32))
(declare-fun _1 ((_ BitVec 16) (_ BitVec 32)) Bool)
(declare-fun _2 ((_ BitVec 16) (_ BitVec 32)) Bool)
(declare-fun _3 ((_ BitVec 16) (_ BitVec 32)) Bool)
(declare-fun _4 ((_ BitVec 16) (_ BitVec 32)) Bool)
(declare-fun _5 ((_ BitVec 16) (_ BitVec 32)) Bool)
(declare-fun _6 ((_ BitVec 16) (_ BitVec 32)) Bool)
(declare-fun _7 ((_ BitVec 16) (_ BitVec 32)) Bool)
(declare-fun _8 ((_ BitVec 16) (_ BitVec 32)) Bool)
(declare-fun _9 ((_ BitVec 16) (_ BitVec 32)) Bool)
(declare-fun _10 ((_ BitVec 16) (_ BitVec 32)) Bool)
(declare-fun _11 ((_ BitVec 16) (_ BitVec 32)) Bool)
(declare-fun _12 ((_ BitVec 16) (_ BitVec 32)) Bool)
(declare-fun _13 ((_ BitVec 16) (_ BitVec 32)) Bool)
(declare-fun _14 ((_ BitVec 16) (_ BitVec 32)) Bool)
(declare-fun _15 ((_ BitVec 16) (_ BitVec 32)) Bool)
(declare-fun _16 ((_ BitVec 16) (_ BitVec 32)) Bool)
(declare-fun _17 ((_ BitVec 16) (_ BitVec 32)) Bool)
(declare-fun _18 ((_ BitVec 16) (_ BitVec 32)) Bool)
(declare-fun _19 ((_ BitVec 16) (_ BitVec 32)) Bool)
(declare-fun _20 ((_ BitVec 16) (_ BitVec 32)) Bool)
(declare-fun _21 ((_ BitVec 16) (_ BitVec 32)) Bool)
(declare-fun _22 ((_ BitVec 16) (_ BitVec 32)) Bool)
(declare-fun _23 ((_ BitVec 16) (_ BitVec 32)) Bool)
(declare-fun _24 ((_ BitVec 16) (_ BitVec 32)) Bool)
(declare-fun _25 ((_ BitVec 16) (_ BitVec 32)) Bool)
(declare-fun _26 ((_ BitVec 16) (_ BitVec 32)) Bool)
(declare-fun _27 ((_ BitVec 16) (_ BitVec 32)) Bool)
(declare-fun _28 ((_ BitVec 16) (_ BitVec 32)) Bool)
(declare-fun _29 ((_ BitVec 16) (_ BitVec 32)) Bool)
(declare-fun _30 ((_ BitVec 16) (_ BitVec 32)) Bool)
(declare-fun _31 ((_ BitVec 16) (_ BitVec 32)) Bool)
(declare-fun _32 ((_ BitVec 16) (_ BitVec 32)) Bool)
(declare-fun _33 ((_ BitVec 16) (_ BitVec 32)) Bool)
(declare-fun _34 ((_ BitVec 16) (_ BitVec 32)) Bool)
(declare-fun _35 ((_ BitVec 16) (_ BitVec 32)) Bool)
(declare-fun _36 ((_ BitVec 16) (_ BitVec 32)) Bool)
(declare-fun _37 ((_ BitVec 16) (_ BitVec 32)) Bool)
(declare-fun _38 ((_ BitVec 16) (_ BitVec 32)) Bool)
(declare-fun _39 ((_ BitVec 16) (_ BitVec 32)) Bool)
(declare-fun _40 ((_ BitVec 16) (_ BitVec 32)) Bool)
(declare-fun _41 ((_ BitVec 16) (_ BitVec 32)) Bool)
(declare-fun _42 ((_ BitVec 16) (_ BitVec 32)) Bool)
(declare-fun _43 ((_ BitVec 16) (_ BitVec 32)) Bool)
(declare-fun _44 ((_ BitVec 16) (_ BitVec 32)) Bool)
(declare-fun _45 ((_ BitVec 16) (_ BitVec 32)) Bool)
(declare-fun _46 ((_ BitVec 16) (_ BitVec 32)) Bool)
(declare-fun _47 ((_ BitVec 16) (_ BitVec 32)) Bool)
(declare-fun _48 ((_ BitVec 16) (_ BitVec 32)) Bool)
(declare-fun _49 ((_ BitVec 16) (_ BitVec 32)) Bool)
(declare-fun _50 ((_ BitVec 16) (_ BitVec 32)) Bool)
(declare-fun _51 ((_ BitVec 16) (_ BitVec 32)) Bool)
(declare-fun _52 ((_ BitVec 16) (_ BitVec 32)) Bool)
(declare-fun _53 ((_ BitVec 16) (_ BitVec 32)) Bool)
(declare-fun _54 ((_ BitVec 16) (_ BitVec 32)) Bool)
(declare-fun _55 ((_ BitVec 16) (_ BitVec 32)) Bool)
(declare-fun _56 ((_ BitVec 16) (_ BitVec 32)) Bool)
(declare-fun _57 ((_ BitVec 16) (_ BitVec 32)) Bool)
(declare-fun _58 ((_ BitVec 16) (_ BitVec 32)) Bool)
(declare-fun _59 ((_ BitVec 16) (_ BitVec 32)) Bool)
(declare-fun _60 ((_ BitVec 16) (_ BitVec 32)) Bool)
(declare-fun _61 ((_ BitVec 16) (_ BitVec 32)) Bool)
(declare-fun _62 ((_ BitVec 16) (_ BitVec 32)) Bool)
(declare-fun _63 ((_ BitVec 16) (_ BitVec 32)) Bool)
(declare-fun _64 ((_ BitVec 16) (_ BitVec 32)) Bool)
(declare-fun _65 ((_ BitVec 16) (_ BitVec 32)) Bool)
(declare-fun _66 ((_ BitVec 16) (_ BitVec 32)) Bool)
(declare-fun _67 ((_ BitVec 16) (_ BitVec 32)) Bool)
(declare-fun _68 ((_ BitVec 16) (_ BitVec 32)) Bool)
(declare-fun _69 ((_ BitVec 16) (_ BitVec 32)) Bool)
(declare-fun _70 ((_ BitVec 16) (_ BitVec 32)) Bool)
(declare-fun _71 ((_ BitVec 16) (_ BitVec 32)) Bool)
(declare-fun _72 ((_ BitVec 16) (_ BitVec 32)) Bool)
(declare-fun _73 ((_ BitVec 16) (_ BitVec 32)) Bool)
(declare-fun _74 ((_ BitVec 16) (_ BitVec 32)) Bool)
(declare-fun _75 ((_ BitVec 16) (_ BitVec 32)) Bool)
(declare-fun _76 ((_ BitVec 16) (_ BitVec 32)) Bool)
(declare-fun _77 ((_ BitVec 16) (_ BitVec 32)) Bool)
(declare-fun _78 ((_ BitVec 16) (_ BitVec 32)) Bool)
(declare-fun _79 ((_ BitVec 16) (_ BitVec 32)) Bool)
(declare-fun _80 ((_ BitVec 16) (_ BitVec 32)) Bool)
(assert
 (forall ((arg0 (_ BitVec 16)) )(_0 (_ bv0 16) time))
 )
(assert
 (forall ((time (_ BitVec 32)) )(let (($x54 (forall ((arg0 (_ BitVec 16)) )(let (($x52 (_0 arg0 time)))
 (=> $x52 (_1 (bvadd arg0 (_ bv1 16)) (bvadd time (_ bv1 32))))))
 ))
 (let (($x57 (and (bvsge time (_ bv0 32)) (bvslt time (_ bv100 32)))))
 (=> $x57 $x54))))
 )
(assert
 (forall ((time (_ BitVec 32)) )(let (($x76 (forall ((arg0 (_ BitVec 16)) )(let (($x74 (_1 arg0 time)))
 (=> $x74 (_2 (bvadd arg0 (_ bv1 16)) (bvadd time (_ bv1 32))))))
 ))
 (let (($x57 (and (bvsge time (_ bv0 32)) (bvslt time (_ bv100 32)))))
 (=> $x57 $x76))))
 )
(assert
 (forall ((time (_ BitVec 32)) )(let (($x88 (forall ((arg0 (_ BitVec 16)) )(let (($x86 (_2 arg0 time)))
 (=> $x86 (_3 (bvadd arg0 (_ bv1 16)) (bvadd time (_ bv1 32))))))
 ))
 (let (($x57 (and (bvsge time (_ bv0 32)) (bvslt time (_ bv100 32)))))
 (=> $x57 $x88))))
 )
(assert
 (forall ((time (_ BitVec 32)) )(let (($x100 (forall ((arg0 (_ BitVec 16)) )(let (($x98 (_3 arg0 time)))
 (=> $x98 (_4 (bvadd arg0 (_ bv1 16)) (bvadd time (_ bv1 32))))))
 ))
 (let (($x57 (and (bvsge time (_ bv0 32)) (bvslt time (_ bv100 32)))))
 (=> $x57 $x100))))
 )
(assert
 (forall ((time (_ BitVec 32)) )(let (($x112 (forall ((arg0 (_ BitVec 16)) )(let (($x110 (_4 arg0 time)))
 (=> $x110 (_5 (bvadd arg0 (_ bv1 16)) (bvadd time (_ bv1 32))))))
 ))
 (let (($x57 (and (bvsge time (_ bv0 32)) (bvslt time (_ bv100 32)))))
 (=> $x57 $x112))))
 )
(assert
 (forall ((time (_ BitVec 32)) )(let (($x124 (forall ((arg0 (_ BitVec 16)) )(let (($x122 (_5 arg0 time)))
 (=> $x122 (_6 (bvadd arg0 (_ bv1 16)) (bvadd time (_ bv1 32))))))
 ))
 (let (($x57 (and (bvsge time (_ bv0 32)) (bvslt time (_ bv100 32)))))
 (=> $x57 $x124))))
 )
(assert
 (forall ((time (_ BitVec 32)) )(let (($x136 (forall ((arg0 (_ BitVec 16)) )(let (($x134 (_6 arg0 time)))
 (=> $x134 (_7 (bvadd arg0 (_ bv1 16)) (bvadd time (_ bv1 32))))))
 ))
 (let (($x57 (and (bvsge time (_ bv0 32)) (bvslt time (_ bv100 32)))))
 (=> $x57 $x136))))
 )
(assert
 (forall ((time (_ BitVec 32)) )(let (($x148 (forall ((arg0 (_ BitVec 16)) )(let (($x146 (_7 arg0 time)))
 (=> $x146 (_8 (bvadd arg0 (_ bv1 16)) (bvadd time (_ bv1 32))))))
 ))
 (let (($x57 (and (bvsge time (_ bv0 32)) (bvslt time (_ bv100 32)))))
 (=> $x57 $x148))))
 )
(assert
 (forall ((time (_ BitVec 32)) )(let (($x160 (forall ((arg0 (_ BitVec 16)) )(let (($x158 (_8 arg0 time)))
 (=> $x158 (_9 (bvadd arg0 (_ bv1 16)) (bvadd time (_ bv1 32))))))
 ))
 (let (($x57 (and (bvsge time (_ bv0 32)) (bvslt time (_ bv100 32)))))
 (=> $x57 $x160))))
 )
(assert
 (forall ((time (_ BitVec 32)) )(let (($x172 (forall ((arg0 (_ BitVec 16)) )(let (($x170 (_9 arg0 time)))
 (=> $x170 (_10 (bvadd arg0 (_ bv1 16)) (bvadd time (_ bv1 32))))))
 ))
 (let (($x57 (and (bvsge time (_ bv0 32)) (bvslt time (_ bv100 32)))))
 (=> $x57 $x172))))
 )
(assert
 (forall ((time (_ BitVec 32)) )(let (($x184 (forall ((arg0 (_ BitVec 16)) )(let (($x182 (_10 arg0 time)))
 (=> $x182 (_11 (bvadd arg0 (_ bv1 16)) (bvadd time (_ bv1 32))))))
 ))
 (let (($x57 (and (bvsge time (_ bv0 32)) (bvslt time (_ bv100 32)))))
 (=> $x57 $x184))))
 )
(assert
 (forall ((time (_ BitVec 32)) )(let (($x196 (forall ((arg0 (_ BitVec 16)) )(let (($x194 (_11 arg0 time)))
 (=> $x194 (_12 (bvadd arg0 (_ bv1 16)) (bvadd time (_ bv1 32))))))
 ))
 (let (($x57 (and (bvsge time (_ bv0 32)) (bvslt time (_ bv100 32)))))
 (=> $x57 $x196))))
 )
(assert
 (forall ((time (_ BitVec 32)) )(let (($x208 (forall ((arg0 (_ BitVec 16)) )(let (($x206 (_12 arg0 time)))
 (=> $x206 (_13 (bvadd arg0 (_ bv1 16)) (bvadd time (_ bv1 32))))))
 ))
 (let (($x57 (and (bvsge time (_ bv0 32)) (bvslt time (_ bv100 32)))))
 (=> $x57 $x208))))
 )
(assert
 (forall ((time (_ BitVec 32)) )(let (($x220 (forall ((arg0 (_ BitVec 16)) )(let (($x218 (_13 arg0 time)))
 (=> $x218 (_14 (bvadd arg0 (_ bv1 16)) (bvadd time (_ bv1 32))))))
 ))
 (let (($x57 (and (bvsge time (_ bv0 32)) (bvslt time (_ bv100 32)))))
 (=> $x57 $x220))))
 )
(assert
 (forall ((time (_ BitVec 32)) )(let (($x232 (forall ((arg0 (_ BitVec 16)) )(let (($x230 (_14 arg0 time)))
 (=> $x230 (_15 (bvadd arg0 (_ bv1 16)) (bvadd time (_ bv1 32))))))
 ))
 (let (($x57 (and (bvsge time (_ bv0 32)) (bvslt time (_ bv100 32)))))
 (=> $x57 $x232))))
 )
(assert
 (forall ((time (_ BitVec 32)) )(let (($x244 (forall ((arg0 (_ BitVec 16)) )(let (($x242 (_15 arg0 time)))
 (=> $x242 (_16 (bvadd arg0 (_ bv1 16)) (bvadd time (_ bv1 32))))))
 ))
 (let (($x57 (and (bvsge time (_ bv0 32)) (bvslt time (_ bv100 32)))))
 (=> $x57 $x244))))
 )
(assert
 (forall ((time (_ BitVec 32)) )(let (($x256 (forall ((arg0 (_ BitVec 16)) )(let (($x254 (_16 arg0 time)))
 (=> $x254 (_17 (bvadd arg0 (_ bv1 16)) (bvadd time (_ bv1 32))))))
 ))
 (let (($x57 (and (bvsge time (_ bv0 32)) (bvslt time (_ bv100 32)))))
 (=> $x57 $x256))))
 )
(assert
 (forall ((time (_ BitVec 32)) )(let (($x268 (forall ((arg0 (_ BitVec 16)) )(let (($x266 (_17 arg0 time)))
 (=> $x266 (_18 (bvadd arg0 (_ bv1 16)) (bvadd time (_ bv1 32))))))
 ))
 (let (($x57 (and (bvsge time (_ bv0 32)) (bvslt time (_ bv100 32)))))
 (=> $x57 $x268))))
 )
(assert
 (forall ((time (_ BitVec 32)) )(let (($x280 (forall ((arg0 (_ BitVec 16)) )(let (($x278 (_18 arg0 time)))
 (=> $x278 (_19 (bvadd arg0 (_ bv1 16)) (bvadd time (_ bv1 32))))))
 ))
 (let (($x57 (and (bvsge time (_ bv0 32)) (bvslt time (_ bv100 32)))))
 (=> $x57 $x280))))
 )
(assert
 (forall ((time (_ BitVec 32)) )(let (($x292 (forall ((arg0 (_ BitVec 16)) )(let (($x290 (_19 arg0 time)))
 (=> $x290 (_20 (bvadd arg0 (_ bv1 16)) (bvadd time (_ bv1 32))))))
 ))
 (let (($x57 (and (bvsge time (_ bv0 32)) (bvslt time (_ bv100 32)))))
 (=> $x57 $x292))))
 )
(assert
 (forall ((time (_ BitVec 32)) )(let (($x304 (forall ((arg0 (_ BitVec 16)) )(let (($x302 (_20 arg0 time)))
 (=> $x302 (_21 (bvadd arg0 (_ bv1 16)) (bvadd time (_ bv1 32))))))
 ))
 (let (($x57 (and (bvsge time (_ bv0 32)) (bvslt time (_ bv100 32)))))
 (=> $x57 $x304))))
 )
(assert
 (forall ((time (_ BitVec 32)) )(let (($x316 (forall ((arg0 (_ BitVec 16)) )(let (($x314 (_21 arg0 time)))
 (=> $x314 (_22 (bvadd arg0 (_ bv1 16)) (bvadd time (_ bv1 32))))))
 ))
 (let (($x57 (and (bvsge time (_ bv0 32)) (bvslt time (_ bv100 32)))))
 (=> $x57 $x316))))
 )
(assert
 (forall ((time (_ BitVec 32)) )(let (($x328 (forall ((arg0 (_ BitVec 16)) )(let (($x326 (_22 arg0 time)))
 (=> $x326 (_23 (bvadd arg0 (_ bv1 16)) (bvadd time (_ bv1 32))))))
 ))
 (let (($x57 (and (bvsge time (_ bv0 32)) (bvslt time (_ bv100 32)))))
 (=> $x57 $x328))))
 )
(assert
 (forall ((time (_ BitVec 32)) )(let (($x340 (forall ((arg0 (_ BitVec 16)) )(let (($x338 (_23 arg0 time)))
 (=> $x338 (_24 (bvadd arg0 (_ bv1 16)) (bvadd time (_ bv1 32))))))
 ))
 (let (($x57 (and (bvsge time (_ bv0 32)) (bvslt time (_ bv100 32)))))
 (=> $x57 $x340))))
 )
(assert
 (forall ((time (_ BitVec 32)) )(let (($x352 (forall ((arg0 (_ BitVec 16)) )(let (($x350 (_24 arg0 time)))
 (=> $x350 (_25 (bvadd arg0 (_ bv1 16)) (bvadd time (_ bv1 32))))))
 ))
 (let (($x57 (and (bvsge time (_ bv0 32)) (bvslt time (_ bv100 32)))))
 (=> $x57 $x352))))
 )
(assert
 (forall ((time (_ BitVec 32)) )(let (($x364 (forall ((arg0 (_ BitVec 16)) )(let (($x362 (_25 arg0 time)))
 (=> $x362 (_26 (bvadd arg0 (_ bv1 16)) (bvadd time (_ bv1 32))))))
 ))
 (let (($x57 (and (bvsge time (_ bv0 32)) (bvslt time (_ bv100 32)))))
 (=> $x57 $x364))))
 )
(assert
 (forall ((time (_ BitVec 32)) )(let (($x376 (forall ((arg0 (_ BitVec 16)) )(let (($x374 (_26 arg0 time)))
 (=> $x374 (_27 (bvadd arg0 (_ bv1 16)) (bvadd time (_ bv1 32))))))
 ))
 (let (($x57 (and (bvsge time (_ bv0 32)) (bvslt time (_ bv100 32)))))
 (=> $x57 $x376))))
 )
(assert
 (forall ((time (_ BitVec 32)) )(let (($x388 (forall ((arg0 (_ BitVec 16)) )(let (($x386 (_27 arg0 time)))
 (=> $x386 (_28 (bvadd arg0 (_ bv1 16)) (bvadd time (_ bv1 32))))))
 ))
 (let (($x57 (and (bvsge time (_ bv0 32)) (bvslt time (_ bv100 32)))))
 (=> $x57 $x388))))
 )
(assert
 (forall ((time (_ BitVec 32)) )(let (($x400 (forall ((arg0 (_ BitVec 16)) )(let (($x398 (_28 arg0 time)))
 (=> $x398 (_29 (bvadd arg0 (_ bv1 16)) (bvadd time (_ bv1 32))))))
 ))
 (let (($x57 (and (bvsge time (_ bv0 32)) (bvslt time (_ bv100 32)))))
 (=> $x57 $x400))))
 )
(assert
 (forall ((time (_ BitVec 32)) )(let (($x412 (forall ((arg0 (_ BitVec 16)) )(let (($x410 (_29 arg0 time)))
 (=> $x410 (_30 (bvadd arg0 (_ bv1 16)) (bvadd time (_ bv1 32))))))
 ))
 (let (($x57 (and (bvsge time (_ bv0 32)) (bvslt time (_ bv100 32)))))
 (=> $x57 $x412))))
 )
(assert
 (forall ((time (_ BitVec 32)) )(let (($x424 (forall ((arg0 (_ BitVec 16)) )(let (($x422 (_30 arg0 time)))
 (=> $x422 (_31 (bvadd arg0 (_ bv1 16)) (bvadd time (_ bv1 32))))))
 ))
 (let (($x57 (and (bvsge time (_ bv0 32)) (bvslt time (_ bv100 32)))))
 (=> $x57 $x424))))
 )
(assert
 (forall ((time (_ BitVec 32)) )(let (($x436 (forall ((arg0 (_ BitVec 16)) )(let (($x434 (_31 arg0 time)))
 (=> $x434 (_32 (bvadd arg0 (_ bv1 16)) (bvadd time (_ bv1 32))))))
 ))
 (let (($x57 (and (bvsge time (_ bv0 32)) (bvslt time (_ bv100 32)))))
 (=> $x57 $x436))))
 )
(assert
 (forall ((time (_ BitVec 32)) )(let (($x448 (forall ((arg0 (_ BitVec 16)) )(let (($x446 (_32 arg0 time)))
 (=> $x446 (_33 (bvadd arg0 (_ bv1 16)) (bvadd time (_ bv1 32))))))
 ))
 (let (($x57 (and (bvsge time (_ bv0 32)) (bvslt time (_ bv100 32)))))
 (=> $x57 $x448))))
 )
(assert
 (forall ((time (_ BitVec 32)) )(let (($x460 (forall ((arg0 (_ BitVec 16)) )(let (($x458 (_33 arg0 time)))
 (=> $x458 (_34 (bvadd arg0 (_ bv1 16)) (bvadd time (_ bv1 32))))))
 ))
 (let (($x57 (and (bvsge time (_ bv0 32)) (bvslt time (_ bv100 32)))))
 (=> $x57 $x460))))
 )
(assert
 (forall ((time (_ BitVec 32)) )(let (($x472 (forall ((arg0 (_ BitVec 16)) )(let (($x470 (_34 arg0 time)))
 (=> $x470 (_35 (bvadd arg0 (_ bv1 16)) (bvadd time (_ bv1 32))))))
 ))
 (let (($x57 (and (bvsge time (_ bv0 32)) (bvslt time (_ bv100 32)))))
 (=> $x57 $x472))))
 )
(assert
 (forall ((time (_ BitVec 32)) )(let (($x484 (forall ((arg0 (_ BitVec 16)) )(let (($x482 (_35 arg0 time)))
 (=> $x482 (_36 (bvadd arg0 (_ bv1 16)) (bvadd time (_ bv1 32))))))
 ))
 (let (($x57 (and (bvsge time (_ bv0 32)) (bvslt time (_ bv100 32)))))
 (=> $x57 $x484))))
 )
(assert
 (forall ((time (_ BitVec 32)) )(let (($x496 (forall ((arg0 (_ BitVec 16)) )(let (($x494 (_36 arg0 time)))
 (=> $x494 (_37 (bvadd arg0 (_ bv1 16)) (bvadd time (_ bv1 32))))))
 ))
 (let (($x57 (and (bvsge time (_ bv0 32)) (bvslt time (_ bv100 32)))))
 (=> $x57 $x496))))
 )
(assert
 (forall ((time (_ BitVec 32)) )(let (($x508 (forall ((arg0 (_ BitVec 16)) )(let (($x506 (_37 arg0 time)))
 (=> $x506 (_38 (bvadd arg0 (_ bv1 16)) (bvadd time (_ bv1 32))))))
 ))
 (let (($x57 (and (bvsge time (_ bv0 32)) (bvslt time (_ bv100 32)))))
 (=> $x57 $x508))))
 )
(assert
 (forall ((time (_ BitVec 32)) )(let (($x520 (forall ((arg0 (_ BitVec 16)) )(let (($x518 (_38 arg0 time)))
 (=> $x518 (_39 (bvadd arg0 (_ bv1 16)) (bvadd time (_ bv1 32))))))
 ))
 (let (($x57 (and (bvsge time (_ bv0 32)) (bvslt time (_ bv100 32)))))
 (=> $x57 $x520))))
 )
(assert
 (forall ((time (_ BitVec 32)) )(let (($x532 (forall ((arg0 (_ BitVec 16)) )(let (($x530 (_39 arg0 time)))
 (=> $x530 (_40 (bvadd arg0 (_ bv1 16)) (bvadd time (_ bv1 32))))))
 ))
 (let (($x57 (and (bvsge time (_ bv0 32)) (bvslt time (_ bv100 32)))))
 (=> $x57 $x532))))
 )
(assert
 (forall ((time (_ BitVec 32)) )(let (($x544 (forall ((arg0 (_ BitVec 16)) )(let (($x542 (_40 arg0 time)))
 (=> $x542 (_41 (bvadd arg0 (_ bv1 16)) (bvadd time (_ bv1 32))))))
 ))
 (let (($x57 (and (bvsge time (_ bv0 32)) (bvslt time (_ bv100 32)))))
 (=> $x57 $x544))))
 )
(assert
 (forall ((time (_ BitVec 32)) )(let (($x556 (forall ((arg0 (_ BitVec 16)) )(let (($x554 (_41 arg0 time)))
 (=> $x554 (_42 (bvadd arg0 (_ bv1 16)) (bvadd time (_ bv1 32))))))
 ))
 (let (($x57 (and (bvsge time (_ bv0 32)) (bvslt time (_ bv100 32)))))
 (=> $x57 $x556))))
 )
(assert
 (forall ((time (_ BitVec 32)) )(let (($x568 (forall ((arg0 (_ BitVec 16)) )(let (($x566 (_42 arg0 time)))
 (=> $x566 (_43 (bvadd arg0 (_ bv1 16)) (bvadd time (_ bv1 32))))))
 ))
 (let (($x57 (and (bvsge time (_ bv0 32)) (bvslt time (_ bv100 32)))))
 (=> $x57 $x568))))
 )
(assert
 (forall ((time (_ BitVec 32)) )(let (($x580 (forall ((arg0 (_ BitVec 16)) )(let (($x578 (_43 arg0 time)))
 (=> $x578 (_44 (bvadd arg0 (_ bv1 16)) (bvadd time (_ bv1 32))))))
 ))
 (let (($x57 (and (bvsge time (_ bv0 32)) (bvslt time (_ bv100 32)))))
 (=> $x57 $x580))))
 )
(assert
 (forall ((time (_ BitVec 32)) )(let (($x592 (forall ((arg0 (_ BitVec 16)) )(let (($x590 (_44 arg0 time)))
 (=> $x590 (_45 (bvadd arg0 (_ bv1 16)) (bvadd time (_ bv1 32))))))
 ))
 (let (($x57 (and (bvsge time (_ bv0 32)) (bvslt time (_ bv100 32)))))
 (=> $x57 $x592))))
 )
(assert
 (forall ((time (_ BitVec 32)) )(let (($x604 (forall ((arg0 (_ BitVec 16)) )(let (($x602 (_45 arg0 time)))
 (=> $x602 (_46 (bvadd arg0 (_ bv1 16)) (bvadd time (_ bv1 32))))))
 ))
 (let (($x57 (and (bvsge time (_ bv0 32)) (bvslt time (_ bv100 32)))))
 (=> $x57 $x604))))
 )
(assert
 (forall ((time (_ BitVec 32)) )(let (($x616 (forall ((arg0 (_ BitVec 16)) )(let (($x614 (_46 arg0 time)))
 (=> $x614 (_47 (bvadd arg0 (_ bv1 16)) (bvadd time (_ bv1 32))))))
 ))
 (let (($x57 (and (bvsge time (_ bv0 32)) (bvslt time (_ bv100 32)))))
 (=> $x57 $x616))))
 )
(assert
 (forall ((time (_ BitVec 32)) )(let (($x628 (forall ((arg0 (_ BitVec 16)) )(let (($x626 (_47 arg0 time)))
 (=> $x626 (_48 (bvadd arg0 (_ bv1 16)) (bvadd time (_ bv1 32))))))
 ))
 (let (($x57 (and (bvsge time (_ bv0 32)) (bvslt time (_ bv100 32)))))
 (=> $x57 $x628))))
 )
(assert
 (forall ((time (_ BitVec 32)) )(let (($x640 (forall ((arg0 (_ BitVec 16)) )(let (($x638 (_48 arg0 time)))
 (=> $x638 (_49 (bvadd arg0 (_ bv1 16)) (bvadd time (_ bv1 32))))))
 ))
 (let (($x57 (and (bvsge time (_ bv0 32)) (bvslt time (_ bv100 32)))))
 (=> $x57 $x640))))
 )
(assert
 (forall ((time (_ BitVec 32)) )(let (($x652 (forall ((arg0 (_ BitVec 16)) )(let (($x650 (_49 arg0 time)))
 (=> $x650 (_50 (bvadd arg0 (_ bv1 16)) (bvadd time (_ bv1 32))))))
 ))
 (let (($x57 (and (bvsge time (_ bv0 32)) (bvslt time (_ bv100 32)))))
 (=> $x57 $x652))))
 )
(assert
 (forall ((time (_ BitVec 32)) )(let (($x664 (forall ((arg0 (_ BitVec 16)) )(let (($x662 (_50 arg0 time)))
 (=> $x662 (_51 (bvadd arg0 (_ bv1 16)) (bvadd time (_ bv1 32))))))
 ))
 (let (($x57 (and (bvsge time (_ bv0 32)) (bvslt time (_ bv100 32)))))
 (=> $x57 $x664))))
 )
(assert
 (forall ((time (_ BitVec 32)) )(let (($x676 (forall ((arg0 (_ BitVec 16)) )(let (($x674 (_51 arg0 time)))
 (=> $x674 (_52 (bvadd arg0 (_ bv1 16)) (bvadd time (_ bv1 32))))))
 ))
 (let (($x57 (and (bvsge time (_ bv0 32)) (bvslt time (_ bv100 32)))))
 (=> $x57 $x676))))
 )
(assert
 (forall ((time (_ BitVec 32)) )(let (($x688 (forall ((arg0 (_ BitVec 16)) )(let (($x686 (_52 arg0 time)))
 (=> $x686 (_53 (bvadd arg0 (_ bv1 16)) (bvadd time (_ bv1 32))))))
 ))
 (let (($x57 (and (bvsge time (_ bv0 32)) (bvslt time (_ bv100 32)))))
 (=> $x57 $x688))))
 )
(assert
 (forall ((time (_ BitVec 32)) )(let (($x700 (forall ((arg0 (_ BitVec 16)) )(let (($x698 (_53 arg0 time)))
 (=> $x698 (_54 (bvadd arg0 (_ bv1 16)) (bvadd time (_ bv1 32))))))
 ))
 (let (($x57 (and (bvsge time (_ bv0 32)) (bvslt time (_ bv100 32)))))
 (=> $x57 $x700))))
 )
(assert
 (forall ((time (_ BitVec 32)) )(let (($x712 (forall ((arg0 (_ BitVec 16)) )(let (($x710 (_54 arg0 time)))
 (=> $x710 (_55 (bvadd arg0 (_ bv1 16)) (bvadd time (_ bv1 32))))))
 ))
 (let (($x57 (and (bvsge time (_ bv0 32)) (bvslt time (_ bv100 32)))))
 (=> $x57 $x712))))
 )
(assert
 (forall ((time (_ BitVec 32)) )(let (($x724 (forall ((arg0 (_ BitVec 16)) )(let (($x722 (_55 arg0 time)))
 (=> $x722 (_56 (bvadd arg0 (_ bv1 16)) (bvadd time (_ bv1 32))))))
 ))
 (let (($x57 (and (bvsge time (_ bv0 32)) (bvslt time (_ bv100 32)))))
 (=> $x57 $x724))))
 )
(assert
 (forall ((time (_ BitVec 32)) )(let (($x736 (forall ((arg0 (_ BitVec 16)) )(let (($x734 (_56 arg0 time)))
 (=> $x734 (_57 (bvadd arg0 (_ bv1 16)) (bvadd time (_ bv1 32))))))
 ))
 (let (($x57 (and (bvsge time (_ bv0 32)) (bvslt time (_ bv100 32)))))
 (=> $x57 $x736))))
 )
(assert
 (forall ((time (_ BitVec 32)) )(let (($x748 (forall ((arg0 (_ BitVec 16)) )(let (($x746 (_57 arg0 time)))
 (=> $x746 (_58 (bvadd arg0 (_ bv1 16)) (bvadd time (_ bv1 32))))))
 ))
 (let (($x57 (and (bvsge time (_ bv0 32)) (bvslt time (_ bv100 32)))))
 (=> $x57 $x748))))
 )
(assert
 (forall ((time (_ BitVec 32)) )(let (($x760 (forall ((arg0 (_ BitVec 16)) )(let (($x758 (_58 arg0 time)))
 (=> $x758 (_59 (bvadd arg0 (_ bv1 16)) (bvadd time (_ bv1 32))))))
 ))
 (let (($x57 (and (bvsge time (_ bv0 32)) (bvslt time (_ bv100 32)))))
 (=> $x57 $x760))))
 )
(assert
 (forall ((time (_ BitVec 32)) )(let (($x772 (forall ((arg0 (_ BitVec 16)) )(let (($x770 (_59 arg0 time)))
 (=> $x770 (_60 (bvadd arg0 (_ bv1 16)) (bvadd time (_ bv1 32))))))
 ))
 (let (($x57 (and (bvsge time (_ bv0 32)) (bvslt time (_ bv100 32)))))
 (=> $x57 $x772))))
 )
(assert
 (forall ((time (_ BitVec 32)) )(let (($x784 (forall ((arg0 (_ BitVec 16)) )(let (($x782 (_60 arg0 time)))
 (=> $x782 (_61 (bvadd arg0 (_ bv1 16)) (bvadd time (_ bv1 32))))))
 ))
 (let (($x57 (and (bvsge time (_ bv0 32)) (bvslt time (_ bv100 32)))))
 (=> $x57 $x784))))
 )
(assert
 (forall ((time (_ BitVec 32)) )(let (($x796 (forall ((arg0 (_ BitVec 16)) )(let (($x794 (_61 arg0 time)))
 (=> $x794 (_62 (bvadd arg0 (_ bv1 16)) (bvadd time (_ bv1 32))))))
 ))
 (let (($x57 (and (bvsge time (_ bv0 32)) (bvslt time (_ bv100 32)))))
 (=> $x57 $x796))))
 )
(assert
 (forall ((time (_ BitVec 32)) )(let (($x808 (forall ((arg0 (_ BitVec 16)) )(let (($x806 (_62 arg0 time)))
 (=> $x806 (_63 (bvadd arg0 (_ bv1 16)) (bvadd time (_ bv1 32))))))
 ))
 (let (($x57 (and (bvsge time (_ bv0 32)) (bvslt time (_ bv100 32)))))
 (=> $x57 $x808))))
 )
(assert
 (forall ((time (_ BitVec 32)) )(let (($x820 (forall ((arg0 (_ BitVec 16)) )(let (($x818 (_63 arg0 time)))
 (=> $x818 (_64 (bvadd arg0 (_ bv1 16)) (bvadd time (_ bv1 32))))))
 ))
 (let (($x57 (and (bvsge time (_ bv0 32)) (bvslt time (_ bv100 32)))))
 (=> $x57 $x820))))
 )
(assert
 (forall ((time (_ BitVec 32)) )(let (($x832 (forall ((arg0 (_ BitVec 16)) )(let (($x830 (_64 arg0 time)))
 (=> $x830 (_65 (bvadd arg0 (_ bv1 16)) (bvadd time (_ bv1 32))))))
 ))
 (let (($x57 (and (bvsge time (_ bv0 32)) (bvslt time (_ bv100 32)))))
 (=> $x57 $x832))))
 )
(assert
 (forall ((time (_ BitVec 32)) )(let (($x844 (forall ((arg0 (_ BitVec 16)) )(let (($x842 (_65 arg0 time)))
 (=> $x842 (_66 (bvadd arg0 (_ bv1 16)) (bvadd time (_ bv1 32))))))
 ))
 (let (($x57 (and (bvsge time (_ bv0 32)) (bvslt time (_ bv100 32)))))
 (=> $x57 $x844))))
 )
(assert
 (forall ((time (_ BitVec 32)) )(let (($x856 (forall ((arg0 (_ BitVec 16)) )(let (($x854 (_66 arg0 time)))
 (=> $x854 (_67 (bvadd arg0 (_ bv1 16)) (bvadd time (_ bv1 32))))))
 ))
 (let (($x57 (and (bvsge time (_ bv0 32)) (bvslt time (_ bv100 32)))))
 (=> $x57 $x856))))
 )
(assert
 (forall ((time (_ BitVec 32)) )(let (($x868 (forall ((arg0 (_ BitVec 16)) )(let (($x866 (_67 arg0 time)))
 (=> $x866 (_68 (bvadd arg0 (_ bv1 16)) (bvadd time (_ bv1 32))))))
 ))
 (let (($x57 (and (bvsge time (_ bv0 32)) (bvslt time (_ bv100 32)))))
 (=> $x57 $x868))))
 )
(assert
 (forall ((time (_ BitVec 32)) )(let (($x880 (forall ((arg0 (_ BitVec 16)) )(let (($x878 (_68 arg0 time)))
 (=> $x878 (_69 (bvadd arg0 (_ bv1 16)) (bvadd time (_ bv1 32))))))
 ))
 (let (($x57 (and (bvsge time (_ bv0 32)) (bvslt time (_ bv100 32)))))
 (=> $x57 $x880))))
 )
(assert
 (forall ((time (_ BitVec 32)) )(let (($x892 (forall ((arg0 (_ BitVec 16)) )(let (($x890 (_69 arg0 time)))
 (=> $x890 (_70 (bvadd arg0 (_ bv1 16)) (bvadd time (_ bv1 32))))))
 ))
 (let (($x57 (and (bvsge time (_ bv0 32)) (bvslt time (_ bv100 32)))))
 (=> $x57 $x892))))
 )
(assert
 (forall ((time (_ BitVec 32)) )(let (($x904 (forall ((arg0 (_ BitVec 16)) )(let (($x902 (_70 arg0 time)))
 (=> $x902 (_71 (bvadd arg0 (_ bv1 16)) (bvadd time (_ bv1 32))))))
 ))
 (let (($x57 (and (bvsge time (_ bv0 32)) (bvslt time (_ bv100 32)))))
 (=> $x57 $x904))))
 )
(assert
 (forall ((time (_ BitVec 32)) )(let (($x916 (forall ((arg0 (_ BitVec 16)) )(let (($x914 (_71 arg0 time)))
 (=> $x914 (_72 (bvadd arg0 (_ bv1 16)) (bvadd time (_ bv1 32))))))
 ))
 (let (($x57 (and (bvsge time (_ bv0 32)) (bvslt time (_ bv100 32)))))
 (=> $x57 $x916))))
 )
(assert
 (forall ((time (_ BitVec 32)) )(let (($x928 (forall ((arg0 (_ BitVec 16)) )(let (($x926 (_72 arg0 time)))
 (=> $x926 (_73 (bvadd arg0 (_ bv1 16)) (bvadd time (_ bv1 32))))))
 ))
 (let (($x57 (and (bvsge time (_ bv0 32)) (bvslt time (_ bv100 32)))))
 (=> $x57 $x928))))
 )
(assert
 (forall ((time (_ BitVec 32)) )(let (($x940 (forall ((arg0 (_ BitVec 16)) )(let (($x938 (_73 arg0 time)))
 (=> $x938 (_74 (bvadd arg0 (_ bv1 16)) (bvadd time (_ bv1 32))))))
 ))
 (let (($x57 (and (bvsge time (_ bv0 32)) (bvslt time (_ bv100 32)))))
 (=> $x57 $x940))))
 )
(assert
 (forall ((time (_ BitVec 32)) )(let (($x952 (forall ((arg0 (_ BitVec 16)) )(let (($x950 (_74 arg0 time)))
 (=> $x950 (_75 (bvadd arg0 (_ bv1 16)) (bvadd time (_ bv1 32))))))
 ))
 (let (($x57 (and (bvsge time (_ bv0 32)) (bvslt time (_ bv100 32)))))
 (=> $x57 $x952))))
 )
(assert
 (forall ((time (_ BitVec 32)) )(let (($x964 (forall ((arg0 (_ BitVec 16)) )(let (($x962 (_75 arg0 time)))
 (=> $x962 (_76 (bvadd arg0 (_ bv1 16)) (bvadd time (_ bv1 32))))))
 ))
 (let (($x57 (and (bvsge time (_ bv0 32)) (bvslt time (_ bv100 32)))))
 (=> $x57 $x964))))
 )
(assert
 (forall ((time (_ BitVec 32)) )(let (($x976 (forall ((arg0 (_ BitVec 16)) )(let (($x974 (_76 arg0 time)))
 (=> $x974 (_77 (bvadd arg0 (_ bv1 16)) (bvadd time (_ bv1 32))))))
 ))
 (let (($x57 (and (bvsge time (_ bv0 32)) (bvslt time (_ bv100 32)))))
 (=> $x57 $x976))))
 )
(assert
 (forall ((time (_ BitVec 32)) )(let (($x988 (forall ((arg0 (_ BitVec 16)) )(let (($x986 (_77 arg0 time)))
 (=> $x986 (_78 (bvadd arg0 (_ bv1 16)) (bvadd time (_ bv1 32))))))
 ))
 (let (($x57 (and (bvsge time (_ bv0 32)) (bvslt time (_ bv100 32)))))
 (=> $x57 $x988))))
 )
(assert
 (forall ((time (_ BitVec 32)) )(let (($x1000 (forall ((arg0 (_ BitVec 16)) )(let (($x998 (_78 arg0 time)))
 (=> $x998 (_79 (bvadd arg0 (_ bv1 16)) (bvadd time (_ bv1 32))))))
 ))
 (let (($x57 (and (bvsge time (_ bv0 32)) (bvslt time (_ bv100 32)))))
 (=> $x57 $x1000))))
 )
(assert
 (forall ((time (_ BitVec 32)) )(let (($x1012 (forall ((arg0 (_ BitVec 16)) )(let (($x1010 (_79 arg0 time)))
 (=> $x1010 (_80 (bvadd arg0 (_ bv1 16)) (bvadd time (_ bv1 32))))))
 ))
 (let (($x57 (and (bvsge time (_ bv0 32)) (bvslt time (_ bv100 32)))))
 (=> $x57 $x1012))))
 )
(assert
 (exists ((time (_ BitVec 32)) )(forall ((arg0 (_ BitVec 16)) )(let (($x52 (_0 arg0 time)))
 (and $x52 (and (distinct arg0 (_ bv0 16)) true))))
 )
 )
(check-sat)

